NAME : 	X-n4	
COMMENT : 	0-1: 71, 0-2: 141, 0-3: 90, 1-2: 212, 1-3: 125, 2-3: 152	
TYPE : 	CVRP	
DIMENSION : 	4
EDGE_WEIGHT_TYPE : 	EUC_2D	
CAPACITY : 	150	
NODE_COORD_SECTION		
1	100 100
2	50	50
3	200	200
4	50	175
DEMAND_SECTION		
1	0	
2	60	
3	60	
4	60	
DEPOT_SECTION		
	1	
	-1	
EOF		
